(declare-const __VERIFIER_assert__cond___18 Int)
(declare-const havoc Int)
(declare-const |main____CPAchecker_TMP_0___0':149:172:179:232:240:249| Int)
(declare-const |K:165:166:173:226:234:243| Int)
(declare-const |__tmp_383_0':146:170:177:230:238:247| Int)
(declare-const |main____CPAchecker_TMP_0':148:169:176:229:237:246| Int)
(declare-const |__VERIFIER_assert__cond___17':150:168:175:228:236:245| Int)
(declare-const |havoc:9:63:145:225:233:241:250| Int)
(declare-const |main__t':147:167:174:227:235:244| Int)
(declare-const |__VERIFIER_assert__cond___18':151:171:178:231:239:248| Int)
(declare-const main____CPAchecker_TMP_0___0 Int)
(declare-const __VERIFIER_assert__cond___17 Int)
(declare-const |havoc:3:62:242| Int)
(assert (and (<= (+ (- havoc) 1) 0) (not (= (+ (- havoc) 1) 0))
               (= |havoc:3:62:242| 0)
               (not (= (ite (<= (+ (- havoc) 1) 0) 1 0) 0))
               (or (not (<= (- |K:165:166:173:226:234:243|) 0))
                     (= (+ |main__t':147:167:174:227:235:244|
                             (- |K:165:166:173:226:234:243|)) 0))
               (or (not (and (<= (- |K:165:166:173:226:234:243|) 0)
                               (<= |K:165:166:173:226:234:243| 0)))
                     (= (+ (- __VERIFIER_assert__cond___17)
                             |__VERIFIER_assert__cond___17':150:168:175:228:236:245|) 0))
               (or (not (<= (+ (- |K:165:166:173:226:234:243|) 1) 0))
                     (= (+ |__VERIFIER_assert__cond___17':150:168:175:228:236:245|
                             -1) 0))
               (or (not (and (<= (- |K:165:166:173:226:234:243|) 0)
                               (<= |K:165:166:173:226:234:243| 0)))
                     (= (+ |main____CPAchecker_TMP_0':148:169:176:229:237:246|
                             (- |havoc:3:62:242|)) 0))
               (or (not (<= (+ (- |K:165:166:173:226:234:243|) 1) 0))
                     (= |main____CPAchecker_TMP_0':148:169:176:229:237:246| 0))
               (or (not (and (<= (- |K:165:166:173:226:234:243|) 0)
                               (<= |K:165:166:173:226:234:243| 0)))
                     (= (+ |__tmp_383_0':146:170:177:230:238:247|
                             (- |havoc:3:62:242|)) 0))
               (or (not (<= (+ (- |K:165:166:173:226:234:243|) 1) 0))
                     (= |__tmp_383_0':146:170:177:230:238:247| 0))
               (or (not (and (<= (- |K:165:166:173:226:234:243|) 0)
                               (<= |K:165:166:173:226:234:243| 0)))
                     (= (+ (- __VERIFIER_assert__cond___18)
                             |__VERIFIER_assert__cond___18':151:171:178:231:239:248|) 0))
               (or (not (<= (+ (- |K:165:166:173:226:234:243|) 1) 0))
                     (= (+ |__VERIFIER_assert__cond___18':151:171:178:231:239:248|
                             -1) 0))
               (or (not (and (<= (- |K:165:166:173:226:234:243|) 0)
                               (<= |K:165:166:173:226:234:243| 0)))
                     (= (+ (- main____CPAchecker_TMP_0___0)
                             |main____CPAchecker_TMP_0___0':149:172:179:232:240:249|) 0))
               (or (not (<= (+ (- |K:165:166:173:226:234:243|) 1) 0))
                     (= |main____CPAchecker_TMP_0___0':149:172:179:232:240:249| 0))
               (or (and (= |K:165:166:173:226:234:243| 0)
                          (= (+ __VERIFIER_assert__cond___18
                                  (- |__VERIFIER_assert__cond___18':151:171:178:231:239:248|)) 0)
                          (= (+ __VERIFIER_assert__cond___17
                                  (- |__VERIFIER_assert__cond___17':150:168:175:228:236:245|)) 0)
                          (= (+ main____CPAchecker_TMP_0___0
                                  (- |main____CPAchecker_TMP_0___0':149:172:179:232:240:249|)) 0)
                          (= (+ (- |main____CPAchecker_TMP_0':148:169:176:229:237:246|)
                                  |havoc:3:62:242|) 0)
                          (= (- |main__t':147:167:174:227:235:244|) 0)
                          (= (+ (- |__tmp_383_0':146:170:177:230:238:247|)
                                  |havoc:3:62:242|) 0))
                     (and (<= (+ (- |K:165:166:173:226:234:243|) 1) 0)
                            (= |havoc:3:62:242| 0) (= |havoc:3:62:242| 0)
                            (<= (+ (- havoc) 3) 0)
                            (= (+ |__VERIFIER_assert__cond___18':151:171:178:231:239:248|
                                    -1) 0)
                            (= (+ |__VERIFIER_assert__cond___17':150:168:175:228:236:245|
                                    -1) 0)
                            (= |main____CPAchecker_TMP_0':148:169:176:229:237:246| 0)
                            (= |main____CPAchecker_TMP_0___0':149:172:179:232:240:249| 0)
                            (= |__tmp_383_0':146:170:177:230:238:247| 0)
                            (<= (+ |main__t':147:167:174:227:235:244|
                                     (- havoc) 2) 0)
                            (<= (+ (- |main__t':147:167:174:227:235:244|) 1) 0)))
               (<= (- |K:165:166:173:226:234:243|) 0)
               (= |__tmp_383_0':146:170:177:230:238:247| 0)
               (= |main____CPAchecker_TMP_0':148:169:176:229:237:246| 0)
               (<= (- |main__t':147:167:174:227:235:244|) 0)
               (< (+ (- havoc) 1) 0)
               (= |__tmp_383_0':146:170:177:230:238:247| 0)
               (= |main____CPAchecker_TMP_0':148:169:176:229:237:246| 0)
               (not (= (+ |main__t':147:167:174:227:235:244| (- havoc) 2) 0))
               (not (= |havoc:9:63:145:225:233:241:250| 0))
               (not (= (ite (<= (+ (- |main__t':147:167:174:227:235:244|) -1) 0)
                            1 0) 0))
               (= (ite (<= (+ |main__t':147:167:174:227:235:244| (- havoc) 2) 0)
                       1 0) 0)))
(check-sat)
